100
1000
200
199
199
199
198
197
196
196
194
194
194
194
193
193
193
191
190
190
189
189
189
188
188
185
185
184
183
183
182
182
182
181
180
180
179
179
179
178
177
176
176
176
175
175
175
175
175
173
173
173
172
171
171
170
170
170
169
169
169
169
169
168
168
167
166
166
166
166
166
165
163
162
162
162
161
160
160
160
160
159
159
159
158
158
158
157
157
156
156
156
156
155
154
154
153
152
152
152
150
150
